; benchmark generated from python API
(set-info :status unknown)
(declare-fun syscall_stub_newfstatat_83_64 () (_ BitVec 64))
(declare-fun mem_c0080014_89_32 () (_ BitVec 32))
(declare-fun mem_c0080018_88_32 () (_ BitVec 32))
(declare-fun mem_c0080024_86_32 () (_ BitVec 32))
(declare-fun mem_c0080020_87_32 () (_ BitVec 32))
(declare-fun mem_c0080010_84_32 () (_ BitVec 32))
(declare-fun mem_c0080008_85_32 () (_ BitVec 32))
(declare-fun mem_c0000f45_79_992 () (_ BitVec 992))
(declare-fun mem_c0001010_98_32 () (_ BitVec 32))
(declare-fun mem_f000000000000000_162_128 () (_ BitVec 128))
(assert
 (let ((?x47 ((_ extract 31 0) syscall_stub_newfstatat_83_64)))
 (bvule ?x47 (_ bv4294963200 32))))
(assert
 (let ((?x123 (bvadd mem_c0080018_88_32 mem_c0080014_89_32)))
 (let ((?x129 (concat (_ bv0 32) ?x123)))
 (let ((?x91035 (concat (concat (_ bv0 26) mem_c0080024_86_32) (_ bv0 1))))
 (let ((?x201 (concat (_ bv0 27) mem_c0080024_86_32)))
 (let ((?x90670 (bvadd ?x201 ?x91035)))
 (let ((?x90857 (concat ?x90670 (_ bv0 3))))
 (let ((?x128 (concat (_ bv0 29) mem_c0080024_86_32)))
 (let ((?x90264 (concat ?x128 (_ bv0 1))))
 (let ((?x190 (concat (_ bv0 30) mem_c0080024_86_32)))
 (let ((?x90855 (bvadd (bvadd ?x190 ?x90264) ?x90857)))
 (let ((?x92393 (concat ?x90855 (_ bv0 2))))
 (let ((?x168 (concat (_ bv0 32) mem_c0080020_87_32)))
 (let ((?x90090 (bvadd ?x168 ?x92393)))
 (let ((?x90929 (concat (concat (_ bv0 29) mem_c0080010_84_32) (_ bv0 1))))
 (let ((?x161 (concat (_ bv0 30) mem_c0080010_84_32)))
 (let ((?x91956 (bvadd ?x161 ?x90929)))
 (let ((?x90927 (concat ?x91956 (_ bv0 2))))
 (let ((?x143 (concat (_ bv0 32) mem_c0080008_85_32)))
 (let ((?x90849 (bvadd ?x143 ?x90927)))
 (let (($x90853 (bvsle ?x90090 ?x90849)))
 (let ((?x92357 (ite $x90853 ?x90849 ?x90090)))
 (let (($x91811 (bvsle ?x129 ?x92357)))
 (let ((?x91944 (ite $x91811 ?x92357 ?x129)))
 (let (($x91099 (= (_ bv0 64) ?x91944)))
 (not $x91099))))))))))))))))))))))))))
(assert
 (let ((?x2189 ((_ extract 900 900) mem_c0000f45_79_992)))
 (= (_ bv0 1) ?x2189)))
(assert
 (let ((?x2374 ((_ extract 839 832) mem_c0000f45_79_992)))
 (let ((?x2364 ((_ extract 831 824) mem_c0000f45_79_992)))
 (let ((?x2349 ((_ extract 823 816) mem_c0000f45_79_992)))
 (let ((?x2357 ((_ extract 815 808) mem_c0000f45_79_992)))
 (let ((?x2362 ((_ extract 807 800) mem_c0000f45_79_992)))
 (let ((?x2363 ((_ extract 799 792) mem_c0000f45_79_992)))
 (let ((?x593 (concat (concat ((_ extract 783 776) mem_c0000f45_79_992) ((_ extract 791 784) mem_c0000f45_79_992)) ?x2363)))
 (let ((?x4215 (concat (concat (concat (concat ?x593 ?x2362) ?x2357) ?x2349) ?x2364)))
 (let ((?x3812 (concat ?x4215 ?x2374)))
 (let ((?x3646 (bvmul (_ bv18446744073709551615 64) ?x3812)))
 (let ((?x2427 ((_ extract 775 768) mem_c0000f45_79_992)))
 (let ((?x2419 ((_ extract 767 760) mem_c0000f45_79_992)))
 (let ((?x2429 ((_ extract 759 752) mem_c0000f45_79_992)))
 (let ((?x2417 ((_ extract 751 744) mem_c0000f45_79_992)))
 (let ((?x2410 ((_ extract 743 736) mem_c0000f45_79_992)))
 (let ((?x2411 ((_ extract 735 728) mem_c0000f45_79_992)))
 (let ((?x4124 (concat (concat ((_ extract 719 712) mem_c0000f45_79_992) ((_ extract 727 720) mem_c0000f45_79_992)) ?x2411)))
 (let ((?x3823 (concat (concat (concat (concat (concat ?x4124 ?x2410) ?x2417) ?x2429) ?x2419) ?x2427)))
 (let ((?x3827 (bvadd ?x3823 ?x3646)))
 (let ((?x2482 ((_ extract 63 63) ?x3827)))
 (let (($x2285 (= (_ bv1 1) ?x2482)))
 (not $x2285)))))))))))))))))))))))
(assert
 (let ((?x4996 ((_ extract 837 832) mem_c0000f45_79_992)))
 (bvule ?x4996 (_ bv48 6))))
(assert
 (let ((?x2357 ((_ extract 815 808) mem_c0000f45_79_992)))
 (let ((?x2417 ((_ extract 751 744) mem_c0000f45_79_992)))
 (let (($x1690 (= ?x2417 ?x2357)))
 (let (($x3670 (not $x1690)))
 (let ((?x2362 ((_ extract 807 800) mem_c0000f45_79_992)))
 (let ((?x2410 ((_ extract 743 736) mem_c0000f45_79_992)))
 (let (($x1703 (= ?x2410 ?x2362)))
 (let (($x3664 (not $x1703)))
 (let ((?x2345 ((_ extract 783 776) mem_c0000f45_79_992)))
 (let ((?x2400 ((_ extract 719 712) mem_c0000f45_79_992)))
 (let (($x1701 (= ?x2400 ?x2345)))
 (let (($x3671 (not $x1701)))
 (let ((?x2363 ((_ extract 799 792) mem_c0000f45_79_992)))
 (let ((?x2411 ((_ extract 735 728) mem_c0000f45_79_992)))
 (let (($x1704 (= ?x2411 ?x2363)))
 (let (($x3672 (not $x1704)))
 (let ((?x2346 ((_ extract 791 784) mem_c0000f45_79_992)))
 (let ((?x2401 ((_ extract 727 720) mem_c0000f45_79_992)))
 (let (($x1693 (= ?x2401 ?x2346)))
 (let (($x4136 (not $x1693)))
 (let ((?x2364 ((_ extract 831 824) mem_c0000f45_79_992)))
 (let ((?x2419 ((_ extract 767 760) mem_c0000f45_79_992)))
 (let (($x1155 (= ?x2419 ?x2364)))
 (let (($x4137 (not $x1155)))
 (let ((?x2374 ((_ extract 839 832) mem_c0000f45_79_992)))
 (let ((?x2427 ((_ extract 775 768) mem_c0000f45_79_992)))
 (let (($x1152 (= ?x2427 ?x2374)))
 (let (($x4139 (not $x1152)))
 (let ((?x2349 ((_ extract 823 816) mem_c0000f45_79_992)))
 (let ((?x2429 ((_ extract 759 752) mem_c0000f45_79_992)))
 (let (($x1714 (= ?x2429 ?x2349)))
 (let (($x4539 (not $x1714)))
 (or $x4539 $x4139 $x4137 $x4136 $x3672 $x3671 $x3664 $x3670))))))))))))))))))))))))))))))))))
(assert
 (let (($x2293 (= (_ bv0 32) mem_c0001010_98_32)))
 (not $x2293)))
(assert
 (let ((?x2374 ((_ extract 839 832) mem_c0000f45_79_992)))
 (let ((?x2364 ((_ extract 831 824) mem_c0000f45_79_992)))
 (let ((?x2349 ((_ extract 823 816) mem_c0000f45_79_992)))
 (let ((?x2357 ((_ extract 815 808) mem_c0000f45_79_992)))
 (let ((?x2362 ((_ extract 807 800) mem_c0000f45_79_992)))
 (let ((?x2363 ((_ extract 799 792) mem_c0000f45_79_992)))
 (let ((?x593 (concat (concat ((_ extract 783 776) mem_c0000f45_79_992) ((_ extract 791 784) mem_c0000f45_79_992)) ?x2363)))
 (let ((?x4215 (concat (concat (concat (concat ?x593 ?x2362) ?x2357) ?x2349) ?x2364)))
 (let ((?x3812 (concat ?x4215 ?x2374)))
 (bvule ?x3812 (_ bv18446744073709551600 64))))))))))))
(assert
 (let ((?x2374 ((_ extract 839 832) mem_c0000f45_79_992)))
 (let ((?x2364 ((_ extract 831 824) mem_c0000f45_79_992)))
 (let ((?x2349 ((_ extract 823 816) mem_c0000f45_79_992)))
 (let ((?x2357 ((_ extract 815 808) mem_c0000f45_79_992)))
 (let ((?x2362 ((_ extract 807 800) mem_c0000f45_79_992)))
 (let ((?x2363 ((_ extract 799 792) mem_c0000f45_79_992)))
 (let ((?x593 (concat (concat ((_ extract 783 776) mem_c0000f45_79_992) ((_ extract 791 784) mem_c0000f45_79_992)) ?x2363)))
 (let ((?x4215 (concat (concat (concat (concat ?x593 ?x2362) ?x2357) ?x2349) ?x2364)))
 (let ((?x3812 (concat ?x4215 ?x2374)))
 (= (_ bv17293822569102704640 64) ?x3812)))))))))))
(assert
 (let ((?x175 ((_ extract 7 0) mem_f000000000000000_162_128)))
 (let (($x88322 (= (_ bv10 8) ?x175)))
 (let ((?x82634 (ite $x88322 (_ bv1 1) (_ bv0 1))))
 (let ((?x83417 ((_ extract 15 8) mem_f000000000000000_162_128)))
 (let (($x145 (= (_ bv10 8) ?x83417)))
 (let ((?x86646 (ite $x145 (_ bv1 1) (_ bv0 1))))
 (let ((?x178 ((_ extract 23 16) mem_f000000000000000_162_128)))
 (let (($x83401 (= (_ bv10 8) ?x178)))
 (let ((?x82075 (ite $x83401 (_ bv1 1) (_ bv0 1))))
 (let ((?x83595 ((_ extract 31 24) mem_f000000000000000_162_128)))
 (let (($x150 (= (_ bv10 8) ?x83595)))
 (let ((?x85839 (ite $x150 (_ bv1 1) (_ bv0 1))))
 (let ((?x151 ((_ extract 39 32) mem_f000000000000000_162_128)))
 (let (($x83644 (= (_ bv10 8) ?x151)))
 (let ((?x82345 (ite $x83644 (_ bv1 1) (_ bv0 1))))
 (let ((?x83628 ((_ extract 47 40) mem_f000000000000000_162_128)))
 (let (($x6066 (= (_ bv10 8) ?x83628)))
 (let ((?x82886 (ite $x6066 (_ bv1 1) (_ bv0 1))))
 (let ((?x86873 ((_ extract 55 48) mem_f000000000000000_162_128)))
 (let (($x91886 (= (_ bv10 8) ?x86873)))
 (let ((?x87728 (ite $x91886 (_ bv1 1) (_ bv0 1))))
 (let ((?x86361 ((_ extract 63 56) mem_f000000000000000_162_128)))
 (let (($x1470 (= (_ bv10 8) ?x86361)))
 (let ((?x82854 (ite $x1470 (_ bv1 1) (_ bv0 1))))
 (let ((?x87962 ((_ extract 71 64) mem_f000000000000000_162_128)))
 (let (($x83822 (= (_ bv10 8) ?x87962)))
 (let ((?x82574 (ite $x83822 (_ bv1 1) (_ bv0 1))))
 (let ((?x83855 ((_ extract 79 72) mem_f000000000000000_162_128)))
 (let (($x189 (= (_ bv10 8) ?x83855)))
 (let ((?x92146 (ite $x189 (_ bv1 1) (_ bv0 1))))
 (let ((?x215 ((_ extract 87 80) mem_f000000000000000_162_128)))
 (let (($x84105 (= (_ bv10 8) ?x215)))
 (let ((?x91897 (ite $x84105 (_ bv1 1) (_ bv0 1))))
 (let ((?x91031 ((_ extract 95 88) mem_f000000000000000_162_128)))
 (let (($x90753 (= (_ bv10 8) ?x91031)))
 (let ((?x84428 (ite $x90753 (_ bv1 1) (_ bv0 1))))
 (let ((?x92907 ((_ extract 103 96) mem_f000000000000000_162_128)))
 (let (($x85197 (= (_ bv10 8) ?x92907)))
 (let ((?x82335 (ite $x85197 (_ bv1 1) (_ bv0 1))))
 (let ((?x194 ((_ extract 111 104) mem_f000000000000000_162_128)))
 (let (($x89866 (= (_ bv10 8) ?x194)))
 (let ((?x82842 (ite $x89866 (_ bv1 1) (_ bv0 1))))
 (let ((?x89307 ((_ extract 119 112) mem_f000000000000000_162_128)))
 (let (($x84674 (= (_ bv10 8) ?x89307)))
 (let ((?x86351 (ite $x84674 (_ bv1 1) (_ bv0 1))))
 (let ((?x91848 ((_ extract 127 120) mem_f000000000000000_162_128)))
 (let (($x217 (= (_ bv10 8) ?x91848)))
 (let ((?x86600 (ite $x217 (_ bv1 1) (_ bv0 1))))
 (let ((?x91881 (concat (concat (concat (concat (concat ?x86600 ?x86351) ?x82842) ?x82335) ?x84428) ?x91897)))
 (let ((?x86840 (concat (concat (concat (concat (concat ?x91881 ?x92146) ?x82574) ?x82854) ?x87728) ?x82886)))
 (let ((?x81413 (concat (concat (concat (concat (concat ?x86840 ?x82345) ?x85839) ?x82075) ?x86646) ?x82634)))
 (and (distinct (_ bv0 16) ?x81413) true)))))))))))))))))))))))))))))))))))))))))))))))))))))
(assert
 (let ((?x175 ((_ extract 7 0) mem_f000000000000000_162_128)))
 (let (($x88322 (= (_ bv10 8) ?x175)))
 (let ((?x82634 (ite $x88322 (_ bv1 1) (_ bv0 1))))
 (let ((?x83417 ((_ extract 15 8) mem_f000000000000000_162_128)))
 (let (($x145 (= (_ bv10 8) ?x83417)))
 (let ((?x86646 (ite $x145 (_ bv1 1) (_ bv0 1))))
 (let ((?x178 ((_ extract 23 16) mem_f000000000000000_162_128)))
 (let (($x83401 (= (_ bv10 8) ?x178)))
 (let ((?x82075 (ite $x83401 (_ bv1 1) (_ bv0 1))))
 (let ((?x83595 ((_ extract 31 24) mem_f000000000000000_162_128)))
 (let (($x150 (= (_ bv10 8) ?x83595)))
 (let ((?x85839 (ite $x150 (_ bv1 1) (_ bv0 1))))
 (let ((?x151 ((_ extract 39 32) mem_f000000000000000_162_128)))
 (let (($x83644 (= (_ bv10 8) ?x151)))
 (let ((?x82345 (ite $x83644 (_ bv1 1) (_ bv0 1))))
 (let ((?x83628 ((_ extract 47 40) mem_f000000000000000_162_128)))
 (let (($x6066 (= (_ bv10 8) ?x83628)))
 (let ((?x82886 (ite $x6066 (_ bv1 1) (_ bv0 1))))
 (let ((?x86873 ((_ extract 55 48) mem_f000000000000000_162_128)))
 (let (($x91886 (= (_ bv10 8) ?x86873)))
 (let ((?x87728 (ite $x91886 (_ bv1 1) (_ bv0 1))))
 (let ((?x86361 ((_ extract 63 56) mem_f000000000000000_162_128)))
 (let (($x1470 (= (_ bv10 8) ?x86361)))
 (let ((?x82854 (ite $x1470 (_ bv1 1) (_ bv0 1))))
 (let ((?x87962 ((_ extract 71 64) mem_f000000000000000_162_128)))
 (let (($x83822 (= (_ bv10 8) ?x87962)))
 (let ((?x82574 (ite $x83822 (_ bv1 1) (_ bv0 1))))
 (let ((?x83855 ((_ extract 79 72) mem_f000000000000000_162_128)))
 (let (($x189 (= (_ bv10 8) ?x83855)))
 (let ((?x92146 (ite $x189 (_ bv1 1) (_ bv0 1))))
 (let ((?x215 ((_ extract 87 80) mem_f000000000000000_162_128)))
 (let (($x84105 (= (_ bv10 8) ?x215)))
 (let ((?x91897 (ite $x84105 (_ bv1 1) (_ bv0 1))))
 (let ((?x91031 ((_ extract 95 88) mem_f000000000000000_162_128)))
 (let (($x90753 (= (_ bv10 8) ?x91031)))
 (let ((?x84428 (ite $x90753 (_ bv1 1) (_ bv0 1))))
 (let ((?x92907 ((_ extract 103 96) mem_f000000000000000_162_128)))
 (let (($x85197 (= (_ bv10 8) ?x92907)))
 (let ((?x82335 (ite $x85197 (_ bv1 1) (_ bv0 1))))
 (let ((?x194 ((_ extract 111 104) mem_f000000000000000_162_128)))
 (let (($x89866 (= (_ bv10 8) ?x194)))
 (let ((?x82842 (ite $x89866 (_ bv1 1) (_ bv0 1))))
 (let ((?x89307 ((_ extract 119 112) mem_f000000000000000_162_128)))
 (let (($x84674 (= (_ bv10 8) ?x89307)))
 (let ((?x86351 (ite $x84674 (_ bv1 1) (_ bv0 1))))
 (let ((?x91848 ((_ extract 127 120) mem_f000000000000000_162_128)))
 (let (($x217 (= (_ bv10 8) ?x91848)))
 (let ((?x86600 (ite $x217 (_ bv1 1) (_ bv0 1))))
 (let ((?x64916 (concat (concat (concat (concat (concat (_ bv0 16) ?x86600) ?x86351) ?x82842) ?x82335) ?x84428)))
 (let ((?x60651 (concat (concat (concat (concat (concat ?x64916 ?x91897) ?x92146) ?x82574) ?x82854) ?x87728)))
 (let ((?x65654 (concat (concat (concat (concat (concat ?x60651 ?x82886) ?x82345) ?x85839) ?x82075) ?x86646)))
 (let ((?x66580 (concat ?x65654 ?x82634)))
 (let ((?x59977 ((_ zero_extend 32) ?x66580)))
 (let ((?x61488 (ite $x217 (_ bv15 64) (_ bv64 64))))
 (let ((?x59732 (ite $x84674 (_ bv14 64) ?x61488)))
 (let ((?x62173 (ite $x89866 (_ bv13 64) ?x59732)))
 (let ((?x61729 (ite $x85197 (_ bv12 64) ?x62173)))
 (let ((?x62232 (ite $x90753 (_ bv11 64) ?x61729)))
 (let ((?x59503 (ite $x84105 (_ bv10 64) ?x62232)))
 (let ((?x60366 (ite $x189 (_ bv9 64) ?x59503)))
 (let ((?x61199 (ite $x83822 (_ bv8 64) ?x60366)))
 (let ((?x61564 (ite $x1470 (_ bv7 64) ?x61199)))
 (let ((?x62210 (ite $x91886 (_ bv6 64) ?x61564)))
 (let ((?x58013 (ite $x6066 (_ bv5 64) ?x62210)))
 (let ((?x61000 (ite $x83644 (_ bv4 64) ?x58013)))
 (let ((?x60018 (ite $x150 (_ bv3 64) ?x61000)))
 (let ((?x60242 (ite $x83401 (_ bv2 64) ?x60018)))
 (let ((?x57622 (ite $x145 (_ bv1 64) ?x60242)))
 (let ((?x59582 (ite $x88322 (_ bv0 64) ?x57622)))
 (let (($x66604 (and (distinct (_ bv0 32) ?x66580) true)))
 (let ((?x60076 (ite $x66604 ?x59582 ?x59977)))
 (let ((?x60466 ((_ extract 31 0) ?x60076)))
 (let ((?x61583 ((_ zero_extend 32) ?x60466)))
 (let ((?x2374 ((_ extract 839 832) mem_c0000f45_79_992)))
 (let ((?x2364 ((_ extract 831 824) mem_c0000f45_79_992)))
 (let ((?x2349 ((_ extract 823 816) mem_c0000f45_79_992)))
 (let ((?x2357 ((_ extract 815 808) mem_c0000f45_79_992)))
 (let ((?x2362 ((_ extract 807 800) mem_c0000f45_79_992)))
 (let ((?x2363 ((_ extract 799 792) mem_c0000f45_79_992)))
 (let ((?x593 (concat (concat ((_ extract 783 776) mem_c0000f45_79_992) ((_ extract 791 784) mem_c0000f45_79_992)) ?x2363)))
 (let ((?x4215 (concat (concat (concat (concat ?x593 ?x2362) ?x2357) ?x2349) ?x2364)))
 (let ((?x3812 (concat ?x4215 ?x2374)))
 (let ((?x3646 (bvmul (_ bv18446744073709551615 64) ?x3812)))
 (let ((?x2427 ((_ extract 775 768) mem_c0000f45_79_992)))
 (let ((?x2419 ((_ extract 767 760) mem_c0000f45_79_992)))
 (let ((?x2429 ((_ extract 759 752) mem_c0000f45_79_992)))
 (let ((?x2417 ((_ extract 751 744) mem_c0000f45_79_992)))
 (let ((?x2410 ((_ extract 743 736) mem_c0000f45_79_992)))
 (let ((?x2411 ((_ extract 735 728) mem_c0000f45_79_992)))
 (let ((?x4124 (concat (concat ((_ extract 719 712) mem_c0000f45_79_992) ((_ extract 727 720) mem_c0000f45_79_992)) ?x2411)))
 (let ((?x3823 (concat (concat (concat (concat (concat ?x4124 ?x2410) ?x2417) ?x2429) ?x2419) ?x2427)))
 (let ((?x3827 (bvadd ?x3823 ?x3646)))
 (let ((?x3615 ((_ extract 824 824) mem_c0000f45_79_992)))
 (let ((?x3589 (concat ?x3615 ?x2374)))
 (let ((?x4638 (bvmul (_ bv511 9) ?x3589)))
 (let ((?x4203 ((_ extract 760 760) mem_c0000f45_79_992)))
 (let ((?x3607 (concat ?x4203 ?x2427)))
 (let ((?x3785 (bvadd ?x3607 ?x4638)))
 (let (($x4511 (bvule ?x3785 (_ bv399 9))))
 (let ((?x4614 ((_ extract 63 9) ?x3827)))
 (let (($x4610 (= (_ bv0 55) ?x4614)))
 (let (($x4615 (and $x4610 $x4511)))
 (let ((?x4508 (ite $x4615 ?x3827 (_ bv399 64))))
 (bvule ?x4508 ?x61583)))))))))))))))))))))))))))))))))))))))))))))))))))))))))))))))))))))))))))))))))))))))))))))))))))))))))
(minimize mem_f000000000000000_162_128)
(minimize mem_c0080024_86_32)
(maximize mem_c0080014_89_32)
(maximize mem_c0080024_86_32)
(minimize mem_c0000f45_79_992)
(minimize mem_c0080018_88_32)
(maximize mem_c0080020_87_32)
(minimize mem_c0080008_85_32)
(minimize mem_c0001010_98_32)
(maximize mem_c0000f45_79_992)
(maximize mem_c0080010_84_32)
(maximize mem_c0080018_88_32)
(check-sat)
(get-objectives)
